cP2Y BPOSCAR-0000284
   1.0
     2.8531242500000000    0.0000000000000000    0.0000000000000000
     0.0000000000000000    2.8531242500000000    0.0000000000000000
     0.0000000000000000    0.0000000000000000    2.8531242500000000
 Al Co
   1   1
Direct
   0.0000000000000000  0.0000000000000000  0.0000000000000000
   0.5000000000000000  0.5000000000000000  0.5000000000000000