Cr1 S1
1.0
        3.8259999752         0.0000000000         0.0000000000
        0.0000000000         5.9130001068         0.0000000000
       -1.2243633483         0.0000000000         5.9646339479
   Cr    S
    4    4
Direct
     0.000000000         0.000000000         0.000000000
     0.000000000         0.000000000         0.500000000
     0.500000000         0.500000000         0.000000000
     0.500000000         0.500000000         0.500000000
     0.000000000         0.319999993         0.250000000
     0.000000000         0.680000007         0.750000000
     0.500000000         0.819999993         0.250000000
     0.500000000         0.180000007         0.750000000
