oC1Y BPOSCAR-0022558
   1.0
     3.6793989900000006    0.0000000000000000    0.0000000000000000
     0.0000000000000000    4.1535798599999998    0.0000000000000000
     0.0000000000000000    0.0000000000000000    3.8236792350000002
 Si Ti
   2   2
Direct
   0.0000000000000000  0.5000000000000000  0.5000000000000000
   0.5000000000000000  0.0000000000000000  0.5000000000000000
   0.0000000000000000  0.0000000000000000  0.0000000000000000
   0.5000000000000000  0.5000000000000000  0.0000000000000000