Cu1 O1
1.0
        4.6890001297         0.0000000000         0.0000000000
        0.0000000000         3.4200000763         0.0000000000
       -0.8528750994         0.0000000000         5.0586070453
   Cu    O
    4    4
Direct
     0.250000000         0.231999993         0.000000000
     0.250000000         0.768000007         0.500000000
     0.750000000         0.731999993         0.000000000
     0.750000000         0.268000007         0.500000000
     0.972999990         0.412999988         0.233999997
     0.972999990         0.587000012         0.733999968
     0.472999990         0.912999988         0.233999997
     0.472999990         0.087000012         0.733999968
