aP2Y BPOSCAR-0675402
   1.0
    -1.2489688500000000    2.4101964100000002   -1.1084066800000001
    -3.8805945199999998   -0.4578071300000000    0.1425430700000000
    -1.4313846100000001    2.5585931100000003    3.3956427200000006
 Cu Ag O
   1   1   2
Direct
   0.5000000000000000  0.5000000000000000  0.5000000000000000
   0.0000000000000000  0.0000000000000000  0.0000000000000000
   0.1691864300000000  0.3370706700000000  0.2835515499999998
   0.8308135699999999  0.6629293300000000  0.7164484500000001