oI3N BPOSCAR-0684597
   1.0
     5.8530782471827889    0.0000000000000000    0.0000000000000000
     0.0000000000000000    6.1588711111131813    0.0000000000000000
     0.0000000000000000    0.0000000000000000    3.1607929446275036
 In Sb
   2   2
Direct
   0.5000000000000000  0.0000000000000000  0.5976610100000000
   0.0000000000000000  0.5000000000000000  0.0976610100000000
   0.0000000000000000  0.0000000000000000  0.1515127200000000
   0.5000000000000000  0.5000000000000000  0.6515127199999999