oI3Y BPOSCAR-0030435
   1.0
     8.1511447228165714    0.0000000000000000    0.0000000000000000
     0.0000000000000000    5.0461430197341626    0.0000000000000000
     0.0000000000000000    0.0000000000000000    7.8659149207773531
 Zn Ba
   8   4
Direct
   0.6724366150000002  0.7500000000000000  0.4101287450000002
   0.8275633849999998  0.7500000000000000  0.0898712549999998
   0.6724366150000002  0.2500000000000000  0.5898712549999998
   0.8275633849999998  0.2500000000000000  0.9101287450000002
   0.1724366150000002  0.2500000000000000  0.9101287450000002
   0.3275633849999998  0.2500000000000000  0.5898712549999998
   0.1724366150000002  0.7500000000000000  0.0898712549999998
   0.3275633849999998  0.7500000000000000  0.4101287450000002
   0.5000000000000000  0.7500000000000000  0.8073779000000001
   0.0000000000000000  0.7500000000000000  0.6926220999999999
   0.0000000000000000  0.2500000000000000  0.3073779000000001
   0.5000000000000000  0.2500000000000000  0.1926220999999999