cP2N BPOSCAR-0571436
   1.0
     6.6864277300000010    0.0000000000000000    0.0000000000000000
     0.0000000000000000    6.6864277300000010    0.0000000000000000
     0.0000000000000000    0.0000000000000000    6.6864277300000010
 Sn I
   1   4
Direct
   0.0000000000000000  0.0000000000000000  0.0000000000000000
   0.2339031900000000  0.7660968100000000  0.7660968100000000
   0.7660968100000000  0.2339031900000000  0.7660968100000000
   0.7660968100000000  0.7660968100000000  0.2339031900000000
   0.2339031900000000  0.2339031900000000  0.2339031900000000