aP3N BPOSCAR-0635393
   1.0
    -1.9233544500000015   -3.4958872399999996    1.3364586999999970
     1.9624998199999997   -2.5383092100000000    2.8008223899999996
    -2.9663797300000017    3.7162808800000002    6.3732958999999996
 Ca P I
   2   1   1
Direct
   0.6536658899999999  0.7085705400000003  0.3177989800000001
   0.3133405799999996  0.3342418600000008  0.6846297399999999
   0.9818335000000000  0.0236059500000002  0.5000213100000001
   0.0511600299999996  0.9335816500000002  0.9975499799999996