tP1N BPOSCAR-0033154
   1.0
     4.2857283318865660    0.0000000000000000    0.0000000000000000
     0.0000000000000000    4.2857283318865660    0.0000000000000000
     0.0000000000000000    0.0000000000000000    6.3547812573430607
 Ag I
   1   2
Direct
   0.5000000000000000  0.5000000000000000  0.5000000000000000
   0.0000000000000000  0.5000000000000000  0.7777616999999999
   0.5000000000000000  0.0000000000000000  0.2222383000000001