oF1Y BPOSCAR-0614565
   1.0
     2.7462061222599123    0.0000000000000000    0.0000000000000000
     0.0000000000000000    7.2623585400000694    0.0000000000000000
     0.0000000000000000    0.0000000000000000   11.4917672794962744
 Cu O
   4   8
Direct
   0.5000000000000000  0.5000000000000000  0.5000000000000000
   0.5000000000000000  0.0000000000000000  0.0000000000000000
   0.0000000000000000  0.5000000000000000  0.0000000000000000
   0.0000000000000000  0.0000000000000000  0.5000000000000000
   0.0000000000000000  0.5000000000000000  0.6021200900000001
   0.5000000000000000  0.5000000000000000  0.8978799099999999
   0.0000000000000000  0.0000000000000000  0.1021200900000001
   0.5000000000000000  0.0000000000000000  0.3978799099999999
   0.5000000000000000  0.5000000000000000  0.1021200900000001
   0.0000000000000000  0.5000000000000000  0.3978799099999999
   0.5000000000000000  0.0000000000000000  0.6021200900000001
   0.0000000000000000  0.0000000000000000  0.8978799099999999