tP1Y BPOSCAR-0000949
   1.0
     2.6983934120929063    0.0000000000000000    0.0000000000000000
     0.0000000000000000    2.6983934120929063    0.0000000000000000
     0.0000000000000000    0.0000000000000000    3.7266309199999998
 Co Pt
   1   1
Direct
   0.0000000000000000  0.0000000000000000  0.0000000000000000
   0.5000000000000000  0.5000000000000000  0.5000000000000000