oI1N BPOSCAR-0025596
   1.0
     2.6917850833772863    0.0000000000000000    0.0000000000000000
     0.0000000000000000    3.3132275496844019    0.0000000000000000
     0.0000000000000000    0.0000000000000000   10.0701233878206633
 Li O Ni
   2   4   2
Direct
   0.5000000000000000  0.0000000000000000  0.7724267500000002
   0.0000000000000000  0.5000000000000000  0.2724267500000001
   0.5000000000000000  0.5000000000000000  0.8826666700000001
   0.5000000000000000  0.5000000000000000  0.1307543700000000
   0.0000000000000000  0.0000000000000000  0.3826666700000001
   0.0000000000000000  0.0000000000000000  0.6307543700000000
   0.0000000000000000  0.5000000000000000  0.0071568500000000
   0.5000000000000000  0.0000000000000000  0.5071568500000000