Au1 Te2
1.0
        8.7600002289         0.0000000000         0.0000000000
        0.0000000000         4.4099998474         0.0000000000
       -5.8507873475         0.0000000000         8.2940207180
   Au   Te
    4    8
Direct
     0.748300016         0.493800014         0.124300003
     0.748300016         0.506199956         0.624300003
     0.246000007         0.994099975         0.873099983
     0.246000007         0.005900000         0.373099983
     0.935100019         0.986199975         0.572799981
     0.935100019         0.013800000         0.072799981
     0.558499992         0.052000001         0.674700022
     0.558499992         0.948000014         0.174700022
     0.057500001         0.446399987         0.420899987
     0.057500001         0.553600013         0.920899987
     0.436300009         0.558499992         0.323500007
     0.436300009         0.441500008         0.823500037
