oF3N BPOSCAR-0022009
   1.0
     6.2363014538798494    0.0000000000000000    0.0000000000000000
     0.0000000000000000   24.0015979387369036    0.0000000000000000
     0.0000000000000000    0.0000000000000000    6.2508834982500243
 Se Pb
   8   8
Direct
   0.5000000000000000  0.1894212000000000  0.9850017800000000
   0.5000000000000000  0.8105788000000000  0.9850017800000000
   0.5000000000000000  0.6894212000000000  0.4850017799999999
   0.5000000000000000  0.3105788000000000  0.4850017799999999
   0.0000000000000000  0.1894212000000000  0.4850017799999999
   0.0000000000000000  0.8105788000000000  0.4850017799999999
   0.0000000000000000  0.6894212000000000  0.9850017800000000
   0.0000000000000000  0.3105788000000000  0.9850017800000000
   0.0000000000000000  0.1927314850000000  0.9979982250000000
   0.0000000000000000  0.8072685150000001  0.9979982250000000
   0.0000000000000000  0.6927314849999999  0.4979982249999999
   0.0000000000000000  0.3072685150000000  0.4979982249999999
   0.5000000000000000  0.1927314850000000  0.4979982249999999
   0.5000000000000000  0.8072685150000001  0.4979982249999999
   0.5000000000000000  0.6927314849999999  0.9979982250000000
   0.5000000000000000  0.3072685150000000  0.9979982250000000