tI1N BPOSCAR-0540284
   1.0
     5.4794836100000683    0.0000000000000000    0.0000000000000000
     0.0000000000000000    5.4794836100000683    0.0000000000000000
     0.0000000000000000    0.0000000000000000    5.1848378200001886
 Cu O P
   2   8   2
Direct
   0.0000000000000000  0.0000000000000000  0.0000000000000000
   0.5000000000000000  0.5000000000000000  0.5000000000000000
   0.1343956450000000  0.6953349850000001  0.9145759350000002
   0.6953349850000001  0.8656043550000001  0.0854240649999999
   0.8656043550000001  0.3046650149999998  0.9145759350000002
   0.3046650149999998  0.1343956450000000  0.0854240649999999
   0.6343956449999999  0.1953349850000001  0.4145759350000001
   0.1953349850000001  0.3656043550000000  0.5854240649999999
   0.3656043550000000  0.8046650149999999  0.4145759350000001
   0.8046650149999999  0.6343956449999999  0.5854240649999999
   0.5000000000000000  0.0000000000000000  0.2500000000000000
   0.0000000000000000  0.5000000000000000  0.7500000000000000