mC3N BPOSCAR-0546787
   1.0
     6.0503027690559161    0.0000000000000000    0.0000000000000000
     0.0000000000000000    5.8058162443484527    0.0000000000000000
    -1.3412847479118257    0.0000000000000000    3.9837269517466511
 O K N
   4   2   2
Direct
   0.9204877800000000  0.6856527500000000  0.4000303300000000
   0.9204877800000000  0.3143472500000000  0.4000303300000000
   0.4204877800000000  0.1856527500000000  0.4000303300000000
   0.4204877800000000  0.8143472500000000  0.4000303300000000
   0.9924952600000000  0.0000000000000000  0.9494725800000000
   0.4924952600000000  0.5000000000000000  0.9494725800000000
   0.4988838949999999  0.0000000000000000  0.5567151100000001
   0.9988838949999999  0.5000000000000000  0.5567151100000001