hP1N BPOSCAR-0574250
   1.0
     7.3838276686181779    0.0000000000000000    0.0000000000000000
    -3.6919138343090889    6.3945823381897675    0.0000000000000000
     0.0000000000000000    0.0000000000000000    5.2679669400000000
 In Si Te
   1   1   3
Direct
   0.6666666666666667  0.3333333333333333  0.4633006600000000
   0.0000000000000000  0.0000000000000000  0.2766757500000000
   0.0544849066666666  0.3550765733333332  0.2667378600000000
   0.6449234266666668  0.6994083333333334  0.2667378600000000
   0.3005916666666666  0.9455150933333334  0.2667378600000000