oP1Y BPOSCAR-0705439
   1.0
     2.2658624671048813    0.0000000000000000    0.0000000000000000
     0.0000000000000000    5.9598350933265563    0.0000000000000000
     0.0000000000000000    0.0000000000000000    6.5642248417443598
 Cu O
   1   2
Direct
   0.5000000000000000  0.0000000000000000  0.5000000000000000
   0.5000000000000000  0.0000000000000000  0.9050977550000002
   0.5000000000000000  0.0000000000000000  0.0949022449999998