oF3Y BPOSCAR-0029752
   1.0
     7.4214640959206575    0.0000000000000000    0.0000000000000000
     0.0000000000000000    7.7727154597461103    0.0000000000000000
     0.0000000000000000    0.0000000000000000    7.9121098820103706
 Ni Ge Pt
   8   8  16
Direct
   0.0000000000000000  0.2013824000000001  0.0000000000000000
   0.0000000000000000  0.7986175999999999  0.0000000000000000
   0.0000000000000000  0.7013824000000001  0.5000000000000000
   0.0000000000000000  0.2986176000000000  0.5000000000000000
   0.5000000000000000  0.2013824000000001  0.5000000000000000
   0.5000000000000000  0.7986175999999999  0.5000000000000000
   0.5000000000000000  0.7013824000000001  0.0000000000000000
   0.5000000000000000  0.2986176000000000  0.0000000000000000
   0.0000000000000000  0.0000000000000000  0.2326445950000000
   0.0000000000000000  0.0000000000000000  0.7673554050000000
   0.0000000000000000  0.5000000000000000  0.7326445950000000
   0.0000000000000000  0.5000000000000000  0.2673554050000000
   0.5000000000000000  0.0000000000000000  0.7326445950000000
   0.5000000000000000  0.0000000000000000  0.2673554050000000
   0.5000000000000000  0.5000000000000000  0.2326445950000000
   0.5000000000000000  0.5000000000000000  0.7673554050000000
   0.6979597600000003  0.0000000000000000  0.0000000000000000
   0.7500000000000000  0.2500000000000000  0.2500000000000000
   0.3020402399999998  0.0000000000000000  0.0000000000000000
   0.7500000000000000  0.7500000000000000  0.2500000000000000
   0.6979597600000003  0.5000000000000000  0.5000000000000000
   0.7500000000000000  0.7500000000000000  0.7500000000000000
   0.3020402399999998  0.5000000000000000  0.5000000000000000
   0.7500000000000000  0.2500000000000000  0.7500000000000000
   0.1979597600000002  0.0000000000000000  0.5000000000000000
   0.2500000000000000  0.2500000000000000  0.7500000000000000
   0.8020402399999997  0.0000000000000000  0.5000000000000000
   0.2500000000000000  0.7500000000000000  0.7500000000000000
   0.1979597600000002  0.5000000000000000  0.0000000000000000
   0.2500000000000000  0.7500000000000000  0.2500000000000000
   0.8020402399999997  0.5000000000000000  0.0000000000000000
   0.2500000000000000  0.2500000000000000  0.2500000000000000