hP2Y BPOSCAR-0001103
   1.0
     4.0893356498319466    0.0000000000000000    0.0000000000000000
    -2.0446678249159733    3.5414685573558113    0.0000000000000000
     0.0000000000000000    0.0000000000000000    3.7962176799999998
 Si Lu
   2   1
Direct
   0.3333333333333333  0.6666666666666667  0.5000000000000000
   0.6666666666666667  0.3333333333333333  0.5000000000000000
   0.0000000000000000  0.0000000000000000  0.0000000000000000