cF2N BPOSCAR-0008222
   1.0
     5.0670397789115720    0.0000000000000000    0.0000000000000000
     0.0000000000000000    5.0670397789115720    0.0000000000000000
     0.0000000000000000    0.0000000000000000    5.0670397789115720
 O Ag
   4   4
Direct
   0.7500000000000000  0.7500000000000000  0.2500000000000000
   0.7500000000000000  0.2500000000000000  0.7500000000000000
   0.2500000000000000  0.7500000000000000  0.7500000000000000
   0.2500000000000000  0.2500000000000000  0.2500000000000000
   0.0000000000000000  0.0000000000000000  0.0000000000000000
   0.0000000000000000  0.5000000000000000  0.5000000000000000
   0.5000000000000000  0.0000000000000000  0.5000000000000000
   0.5000000000000000  0.5000000000000000  0.0000000000000000