cF2Y BPOSCAR-0000451
   1.0
     4.9126411092111697    0.0000000000000000    0.0000000000000000
     0.0000000000000000    4.9126411092111697    0.0000000000000000
     0.0000000000000000    0.0000000000000000    4.9126411092111697
 B Zr
   4   4
Direct
   0.0000000000000000  0.0000000000000000  0.0000000000000000
   0.0000000000000000  0.5000000000000000  0.5000000000000000
   0.5000000000000000  0.0000000000000000  0.5000000000000000
   0.5000000000000000  0.5000000000000000  0.0000000000000000
   0.0000000000000000  0.0000000000000000  0.5000000000000000
   0.0000000000000000  0.5000000000000000  0.0000000000000000
   0.5000000000000000  0.0000000000000000  0.0000000000000000
   0.5000000000000000  0.5000000000000000  0.5000000000000000