tI2N BPOSCAR-0007590
   1.0
     3.5651955268357800    0.0000000000000000    0.0000000000000000
     0.0000000000000000    3.5651955268357800    0.0000000000000000
     0.0000000000000000    0.0000000000000000    5.7414401540403173
 P Ge
   2   2
Direct
   0.5000000000000000  0.5000000000000000  0.9233913399999996
   0.0000000000000000  0.0000000000000000  0.4233913399999996
   0.0000000000000000  0.0000000000000000  0.0036086699999997
   0.5000000000000000  0.5000000000000000  0.5036086699999996