tI2Y BPOSCAR-0019275
   1.0
     3.0845227912262532    0.0000000000000000    0.0000000000000000
     0.0000000000000000    3.0845227912262532    0.0000000000000000
     0.0000000000000000    0.0000000000000000    4.0861539485071861
 O Co
   2   2
Direct
   0.0000000000000000  0.0000000000000000  0.5000000000000000
   0.5000000000000000  0.5000000000000000  0.0000000000000000
   0.0000000000000000  0.0000000000000000  0.0000000000000000
   0.5000000000000000  0.5000000000000000  0.5000000000000000