oI1Y BPOSCAR-0684664
   1.0
     3.1118027642203017    0.0000000000000000    0.0000000000000000
     0.0000000000000000    5.3500051348576578    0.0000000000000000
     0.0000000000000000    0.0000000000000000    5.7866263658364208
 Ga Sb
   2   2
Direct
   0.0000000000000000  0.0000000000000000  0.5000000000000000
   0.5000000000000000  0.5000000000000000  0.0000000000000000
   0.0000000000000000  0.0000000000000000  0.0000000000000000
   0.5000000000000000  0.5000000000000000  0.5000000000000000