oF2N BPOSCAR-0569272
   1.0
    10.4292567500000608    0.0000000000000000    0.0000000000000000
     0.0000000000000000   21.2694236321398442    0.0000000000000000
     0.0000000000000000    0.0000000000000000    5.5880580299681384
 Cs Se
  16   8
Direct
   0.1729328200000002  0.5632488700000001  0.9531259500000002
   0.8270671799999998  0.4367511299999999  0.9531259500000002
   0.0770671799999998  0.3132488700000001  0.7031259500000002
   0.9229328200000002  0.6867511299999999  0.7031259500000002
   0.1729328200000002  0.0632488700000001  0.4531259500000002
   0.8270671799999998  0.9367511299999998  0.4531259500000002
   0.0770671799999998  0.8132488700000001  0.2031259500000002
   0.9229328200000002  0.1867511299999999  0.2031259500000002
   0.6729328200000002  0.5632488700000001  0.4531259500000002
   0.3270671799999998  0.4367511299999999  0.4531259500000002
   0.5770671799999998  0.3132488700000001  0.2031259500000002
   0.4229328200000002  0.6867511299999999  0.2031259500000002
   0.6729328200000002  0.0632488700000001  0.9531259500000002
   0.3270671799999998  0.9367511299999998  0.9531259500000002
   0.5770671799999998  0.8132488700000001  0.7031259500000002
   0.4229328200000002  0.1867511299999999  0.7031259500000002
   0.0000000000000000  0.5000000000000000  0.4701481000000003
   0.7500000000000000  0.7500000000000000  0.2201481000000003
   0.0000000000000000  0.0000000000000000  0.9701481000000002
   0.7500000000000000  0.2500000000000000  0.7201481000000003
   0.5000000000000000  0.5000000000000000  0.9701481000000002
   0.2500000000000000  0.7500000000000000  0.7201481000000003
   0.5000000000000000  0.0000000000000000  0.4701481000000003
   0.2500000000000000  0.2500000000000000  0.2201481000000003