oC2N BPOSCAR-0560008
   1.0
     9.0059756537376536    0.0000000000000000    0.0000000000000000
     0.0000000000000000    5.5869779485260906    0.0000000000000000
     0.0000000000000000    0.0000000000000000    4.9891349099999998
 P N F
   4   4   8
Direct
   0.0000000000000000  0.8668441500000000  0.5046977300000000
   0.0000000000000000  0.1331558500000000  0.0046977300000000
   0.5000000000000000  0.3668441500000000  0.5046977300000000
   0.5000000000000000  0.6331558500000000  0.0046977300000000
   0.0000000000000000  0.9118570800000000  0.1953748200000000
   0.0000000000000000  0.0881429200000000  0.6953748200000001
   0.5000000000000000  0.4118570800000000  0.1953748200000000
   0.5000000000000000  0.5881429200000000  0.6953748200000001
   0.1317217700000000  0.3063995400000000  0.0694637200000000
   0.8682782300000000  0.6936004600000001  0.5694637200000000
   0.8682782300000000  0.3063995400000000  0.0694637200000000
   0.1317217700000000  0.6936004600000001  0.5694637200000000
   0.6317217700000000  0.8063995399999999  0.0694637200000000
   0.3682782300000000  0.1936004600000000  0.5694637200000000
   0.3682782300000000  0.8063995399999999  0.0694637200000000
   0.6317217700000000  0.1936004600000000  0.5694637200000000