Mn1 O3 S1
1.0
        7.9120001793         0.0000000000         0.0000000000
       -2.6073387350         7.4700422728         0.0000000000
       -2.6073387350        -3.6716632672         6.5054146993
   Mn    S    O
    6    6   18
Direct
     0.365300000         0.186100006         0.681429982
     0.634700000         0.813899994         0.318570018
     0.681429982         0.365300000         0.186100006
     0.318570018         0.634700000         0.813899994
     0.186100006         0.681429982         0.365300000
     0.813899994         0.318570018         0.634700000
     0.355500013         0.024850000         0.210030004
     0.644500017         0.975149989         0.789969981
     0.210030004         0.355500013         0.024850000
     0.789969981         0.644500017         0.975149989
     0.024850000         0.210030004         0.355500013
     0.975149989         0.789969981         0.644500017
     0.553499997         0.230100006         0.340499997
     0.446500003         0.769899964         0.659500003
     0.340499997         0.553499997         0.230100006
     0.659500003         0.446500003         0.769899964
     0.230100006         0.340499997         0.553499997
     0.769899964         0.659500003         0.446500003
     0.310099989         0.979699969         0.372500002
     0.689900041         0.020300001         0.627499998
     0.372500002         0.310099989         0.979699969
     0.627499998         0.689900041         0.020300001
     0.979699969         0.372500002         0.310099989
     0.020300001         0.627499998         0.689900041
     0.412699997         0.867799997         0.119000003
     0.587300003         0.132200003         0.880999982
     0.119000003         0.412699997         0.867799997
     0.880999982         0.587300003         0.132200003
     0.867799997         0.119000003         0.412699997
     0.132200003         0.880999982         0.587300003
