oI2Y BPOSCAR-0013109
   1.0
     8.1865328430279583    0.0000000000000000    0.0000000000000000
     0.0000000000000000    5.8271006735743560    0.0000000000000000
     0.0000000000000000    0.0000000000000000    5.8365707664294835
 O Sr Hf
  12   4   4
Direct
   0.2905378000000001  0.0000000000000000  0.0000000000000000
   0.2094621999999999  0.0000000000000000  0.5000000000000000
   0.2094621999999999  0.5000000000000000  0.5000000000000000
   0.7905378000000001  0.0000000000000000  0.5000000000000000
   0.0000000000000000  0.7500000000000000  0.1751481400000001
   0.5000000000000000  0.7500000000000000  0.3248518600000000
   0.7905378000000001  0.5000000000000000  0.5000000000000000
   0.7094621999999999  0.5000000000000000  0.0000000000000000
   0.7094621999999999  0.0000000000000000  0.0000000000000000
   0.2905378000000000  0.5000000000000000  0.0000000000000000
   0.5000000000000000  0.2500000000000000  0.6751481400000001
   0.0000000000000000  0.2500000000000000  0.8248518599999999
   0.0000000000000000  0.7500000000000000  0.7411616600000002
   0.5000000000000000  0.7500000000000000  0.7588383399999998
   0.5000000000000000  0.2500000000000000  0.2411616600000002
   0.0000000000000000  0.2500000000000000  0.2588383399999998
   0.2500000000000000  0.7500000000000000  0.2500000000000000
   0.2500000000000000  0.2500000000000000  0.7500000000000000
   0.7500000000000000  0.2500000000000000  0.7500000000000000
   0.7500000000000000  0.7500000000000000  0.2500000000000000