aP2N BPOSCAR-0676400
   1.0
     0.2232003000000002    3.9509284600000001    0.1087184900000000
     0.3371022500000000    0.0885412800000000    4.1905891500000001
     4.5153270699999997    0.1789567900000000    0.3161373900000000
 Tl N O
   1   1   2
Direct
   0.9926416100000000  0.9866600400000000  0.0201893400000000
   0.4692735300000002  0.4346563700000002  0.5762333700000000
   0.3840447300000002  0.4084731400000002  0.3183778200000001
   0.6540401400000000  0.6702104500000001  0.5851994800000000