oC1N BPOSCAR-0571636
   1.0
     4.4114352315552399    0.0000000000000000    0.0000000000000000
     0.0000000000000000   12.4398762544664478    0.0000000000000000
     0.0000000000000000    0.0000000000000000    4.5441456599999999
 In Cl
   4   4
Direct
   0.5000000000000000  0.1136209299999999  0.7500967299999999
   0.5000000000000000  0.8863790700000000  0.2500967299999999
   0.0000000000000000  0.6136209300000000  0.7500967299999999
   0.0000000000000000  0.3863790700000001  0.2500967299999999
   0.0000000000000000  0.8444605049999999  0.7659032699999999
   0.0000000000000000  0.1555394950000001  0.2659032699999999
   0.5000000000000000  0.3444605049999999  0.7659032699999999
   0.5000000000000000  0.6555394950000001  0.2659032699999999