hR2N BPOSCAR-0035308
   1.0
     6.1618161492568841    0.0000000000000000    0.0000000000000000
    -3.0809080746284421    5.3362893187056679    0.0000000000000000
     0.0000000000000000    0.0000000000000000    4.8124574132877891
 C Cu N
   3   3   3
Direct
   0.0000000000000000  0.0000000000000000  0.3778850299999999
   0.6666666666666666  0.3333333333333333  0.7112183633333332
   0.3333333333333333  0.6666666666666666  0.0445516966666666
   0.0000000000000000  0.0000000000000000  0.0002308800000000
   0.6666666666666666  0.3333333333333333  0.3335642133333334
   0.3333333333333333  0.6666666666666666  0.6668975466666667
   0.0000000000000000  0.0000000000000000  0.6218840800000001
   0.6666666666666666  0.3333333333333333  0.9552174133333334
   0.3333333333333333  0.6666666666666666  0.2885507466666666