hR2Y BPOSCAR-0559435
   1.0
     5.5166617143778431    0.0000000000000000    0.0000000000000000
    -2.7583308571889216    4.7775691887362246    0.0000000000000000
     0.0000000000000000    0.0000000000000000    6.5087155299999999
 F Co
   9   3
Direct
   0.8333333333333333  0.6666666666666666  0.1666666666666666
   0.6666666666666666  0.8333333333333333  0.8333333333333334
   0.8333333333333333  0.1666666666666667  0.1666666666666666
   0.4999999999999999  0.0000000000000000  0.5000000000000000
   0.3333333333333332  0.1666666666666666  0.1666666666666666
   0.4999999999999999  0.5000000000000000  0.5000000000000000
   0.1666666666666666  0.3333333333333332  0.8333333333333333
   0.0000000000000000  0.4999999999999999  0.5000000000000000
   0.1666666666666666  0.8333333333333333  0.8333333333333333
   0.0000000000000000  0.0000000000000000  0.0000000000000000
   0.6666666666666666  0.3333333333333333  0.3333333333333333
   0.3333333333333333  0.6666666666666666  0.6666666666666666