oI2N BPOSCAR-0866845
   1.0
     9.8579857154919317    0.0000000000000000    0.0000000000000000
     0.0000000000000000    6.8879312335870866    0.0000000000000000
     0.0000000000000000    0.0000000000000000    7.0088148600000002
 Ca Sn S
   4   4  12
Direct
   0.7500000000000000  0.0305814600000002  0.0354614700000000
   0.2500000000000000  0.9694185399999998  0.0354614700000000
   0.2500000000000000  0.5305814600000002  0.5354614700000000
   0.7500000000000000  0.4694185399999998  0.5354614700000000
   0.0000000000000000  0.0000000000000000  0.5085183400000000
   0.0000000000000000  0.5000000000000000  0.0085183399999999
   0.5000000000000000  0.5000000000000000  0.0085183399999999
   0.5000000000000000  0.0000000000000000  0.5085183400000000
   0.2500000000000000  0.3739959450000001  0.9444468950000000
   0.7500000000000000  0.6260040549999999  0.9444468950000000
   0.0756857550000000  0.7605886250000001  0.7620421749999999
   0.9243142450000000  0.2394113749999999  0.7620421749999999
   0.9243142450000000  0.2605886250000002  0.2620421750000000
   0.0756857550000000  0.7394113749999999  0.2620421750000000
   0.7500000000000000  0.8739959450000001  0.4444468950000000
   0.2500000000000000  0.1260040549999999  0.4444468950000000
   0.5756857550000001  0.2605886250000002  0.2620421750000000
   0.4243142450000000  0.7394113749999999  0.2620421750000000
   0.4243142450000000  0.7605886250000001  0.7620421749999999
   0.5756857550000001  0.2394113749999998  0.7620421749999999