mC3Y BPOSCAR-0755333
   1.0
     4.9221728169717158    0.0000000000000000    0.0000000000000000
     0.0000000000000000    5.0500784999999997    0.0000000000000000
    -1.9363348593869576    0.0000000000000000    3.8443169378737232
 Hg O
   2   4
Direct
   0.0000000000000000  0.0000000000000000  0.0000000000000000
   0.5000000000000000  0.5000000000000000  0.0000000000000000
   0.5244409400000001  0.0000000000000000  0.6825487000000000
   0.4755590600000000  0.0000000000000000  0.3174513000000000
   0.0244409400000000  0.5000000000000000  0.6825487000000000
   0.9755590600000000  0.5000000000000000  0.3174513000000000