cF1N BPOSCAR-0608162
   1.0
    10.5257053675443810    0.0000000000000000    0.0000000000000000
     0.0000000000000000   10.5257053675443810    0.0000000000000000
     0.0000000000000000    0.0000000000000000   10.5257053675443810
 K Cu Pb N O
   8   4   4  24  48
Direct
   0.7500000000000000  0.2500000000000000  0.2500000000000000
   0.2500000000000000  0.7500000000000000  0.7500000000000000
   0.7500000000000000  0.7500000000000000  0.7500000000000000
   0.2500000000000000  0.2500000000000000  0.2500000000000000
   0.2500000000000000  0.2500000000000000  0.7500000000000000
   0.7500000000000000  0.7500000000000000  0.2500000000000000
   0.2500000000000000  0.7500000000000000  0.2500000000000000
   0.7500000000000000  0.2500000000000000  0.7500000000000000
   0.0000000000000000  0.0000000000000000  0.0000000000000000
   0.0000000000000000  0.5000000000000000  0.5000000000000000
   0.5000000000000000  0.0000000000000000  0.5000000000000000
   0.5000000000000000  0.5000000000000000  0.0000000000000000
   0.5000000000000000  0.0000000000000000  0.0000000000000000
   0.5000000000000000  0.5000000000000000  0.5000000000000000
   0.0000000000000000  0.0000000000000000  0.5000000000000000
   0.0000000000000000  0.5000000000000000  0.0000000000000000
   0.0000000000000000  0.0000000000000000  0.7997519249999998
   0.0000000000000000  0.2002480750000002  0.0000000000000000
   0.2002480750000002  0.0000000000000000  0.0000000000000000
   0.0000000000000000  0.7997519249999998  0.0000000000000000
   0.7997519249999998  0.0000000000000000  0.0000000000000000
   0.0000000000000000  0.0000000000000000  0.2002480750000002
   0.0000000000000000  0.5000000000000000  0.2997519249999998
   0.0000000000000000  0.7002480750000002  0.5000000000000000
   0.2002480750000002  0.5000000000000000  0.5000000000000000
   0.0000000000000000  0.2997519249999998  0.5000000000000000
   0.7997519249999998  0.5000000000000000  0.5000000000000000
   0.0000000000000000  0.5000000000000000  0.7002480750000002
   0.5000000000000000  0.0000000000000000  0.2997519249999998
   0.5000000000000000  0.2002480750000002  0.5000000000000000
   0.7002480750000002  0.0000000000000000  0.5000000000000000
   0.5000000000000000  0.7997519249999998  0.5000000000000000
   0.2997519249999998  0.0000000000000000  0.5000000000000000
   0.5000000000000000  0.0000000000000000  0.7002480750000002
   0.5000000000000000  0.5000000000000000  0.7997519249999998
   0.5000000000000000  0.7002480750000002  0.0000000000000000
   0.7002480750000002  0.5000000000000000  0.0000000000000000
   0.5000000000000000  0.2997519249999998  0.0000000000000000
   0.2997519249999998  0.5000000000000000  0.0000000000000000
   0.5000000000000000  0.5000000000000000  0.2002480750000002
   0.1009603100000000  0.7627072449999998  0.4840792550000000
   0.9840792550000000  0.8990396900000001  0.7372927550000002
   0.7372927550000002  0.0159207450000000  0.1009603100000000
   0.9840792550000000  0.1009603100000000  0.2627072449999998
   0.0159207450000000  0.8990396900000001  0.2627072449999998
   0.2627072449999998  0.0159207450000000  0.8990396900000001
   0.8990396900000001  0.2372927550000002  0.4840792550000000
   0.1009603100000000  0.2372927550000002  0.5159207450000000
   0.7372927550000002  0.9840792550000000  0.8990396900000001
   0.2627072449999998  0.9840792550000000  0.1009603100000000
   0.8990396900000001  0.7627072449999998  0.5159207450000000
   0.0159207450000000  0.1009603100000000  0.7372927550000002
   0.1009603100000000  0.2627072449999998  0.9840792550000000
   0.9840792550000000  0.3990396900000000  0.2372927550000002
   0.7372927550000002  0.5159207450000000  0.6009603099999999
   0.9840792550000000  0.6009603099999999  0.7627072449999998
   0.0159207450000000  0.3990396900000000  0.7627072449999998
   0.2627072449999998  0.5159207450000000  0.3990396900000000
   0.8990396900000001  0.7372927550000002  0.9840792550000000
   0.1009603100000000  0.7372927550000002  0.0159207450000000
   0.7372927550000002  0.4840792550000000  0.3990396900000000
   0.2627072449999998  0.4840792550000000  0.6009603099999999
   0.8990396900000001  0.2627072449999998  0.0159207450000000
   0.0159207450000000  0.6009603099999999  0.2372927550000002
   0.6009603099999999  0.7627072449999998  0.9840792550000000
   0.4840792550000000  0.8990396900000001  0.2372927550000002
   0.2372927550000002  0.0159207450000000  0.6009603099999999
   0.4840792550000000  0.1009603100000000  0.7627072449999998
   0.5159207450000000  0.8990396900000001  0.7627072449999998
   0.7627072449999998  0.0159207450000000  0.3990396900000000
   0.3990396900000000  0.2372927550000002  0.9840792550000000
   0.6009603099999999  0.2372927550000002  0.0159207450000000
   0.2372927550000002  0.9840792550000000  0.3990396900000000
   0.7627072449999998  0.9840792550000000  0.6009603099999999
   0.3990396900000000  0.7627072449999998  0.0159207450000000
   0.5159207450000000  0.1009603100000000  0.2372927550000002
   0.6009603099999999  0.2627072449999998  0.4840792550000000
   0.4840792550000000  0.3990396900000000  0.7372927550000002
   0.2372927550000002  0.5159207450000000  0.1009603100000000
   0.4840792550000000  0.6009603099999999  0.2627072449999998
   0.5159207450000000  0.3990396900000000  0.2627072449999998
   0.7627072449999998  0.5159207450000000  0.8990396900000001
   0.3990396900000000  0.7372927550000002  0.4840792550000000
   0.6009603099999999  0.7372927550000002  0.5159207450000000
   0.2372927550000002  0.4840792550000000  0.8990396900000001
   0.7627072449999998  0.4840792550000000  0.1009603100000000
   0.3990396900000000  0.2627072449999998  0.5159207450000000
   0.5159207450000000  0.6009603099999999  0.7372927550000002