cF1Y BPOSCAR-0019863
   1.0
    10.8589940276984667    0.0000000000000000    0.0000000000000000
     0.0000000000000000   10.8589940276984667    0.0000000000000000
     0.0000000000000000    0.0000000000000000   10.8589940276984667
 N O K Cu Pb
  24  48   8   4   4
Direct
   0.8008872400000000  0.0000000000000000  0.0000000000000000
   0.0000000000000000  0.1991127600000000  0.0000000000000000
   0.0000000000000000  0.0000000000000000  0.8008872400000000
   0.0000000000000000  0.0000000000000000  0.1991127600000000
   0.0000000000000000  0.8008872400000000  0.0000000000000000
   0.1991127600000000  0.0000000000000000  0.0000000000000000
   0.8008872400000000  0.5000000000000000  0.5000000000000000
   0.0000000000000000  0.6991127600000000  0.5000000000000000
   0.0000000000000000  0.5000000000000000  0.3008872400000000
   0.0000000000000000  0.5000000000000000  0.6991127600000000
   0.0000000000000000  0.3008872400000000  0.5000000000000000
   0.1991127600000000  0.5000000000000000  0.5000000000000000
   0.3008872400000000  0.0000000000000000  0.5000000000000000
   0.5000000000000000  0.1991127600000000  0.5000000000000000
   0.5000000000000000  0.0000000000000000  0.3008872400000000
   0.5000000000000000  0.0000000000000000  0.6991127600000000
   0.5000000000000000  0.8008872400000000  0.5000000000000000
   0.6991127600000000  0.0000000000000000  0.5000000000000000
   0.3008872400000000  0.5000000000000000  0.0000000000000000
   0.5000000000000000  0.6991127600000000  0.0000000000000000
   0.5000000000000000  0.5000000000000000  0.8008872400000000
   0.5000000000000000  0.5000000000000000  0.1991127600000000
   0.5000000000000000  0.3008872400000000  0.0000000000000000
   0.6991127600000000  0.5000000000000000  0.0000000000000000
   0.0992918700000000  0.2589942300000000  0.0000000000000000
   0.2589942300000000  0.0000000000000000  0.9007081299999999
   0.7410057700000000  0.0000000000000000  0.0992918700000000
   0.7410057700000000  0.0000000000000000  0.9007081299999999
   0.2589942300000000  0.0000000000000000  0.0992918700000000
   0.0000000000000000  0.9007081299999999  0.2589942300000000
   0.0992918700000000  0.7410057700000000  0.0000000000000000
   0.9007081299999999  0.7410057700000000  0.0000000000000000
   0.0000000000000000  0.0992918700000000  0.7410057700000000
   0.0000000000000000  0.9007081299999999  0.7410057700000000
   0.9007081299999999  0.2589942300000000  0.0000000000000000
   0.0000000000000000  0.0992918700000000  0.2589942300000000
   0.0992918700000000  0.7589942300000000  0.5000000000000000
   0.2589942300000000  0.5000000000000000  0.4007081300000000
   0.7410057700000000  0.5000000000000000  0.5992918700000001
   0.7410057700000000  0.5000000000000000  0.4007081300000000
   0.2589942300000000  0.5000000000000000  0.5992918700000001
   0.0000000000000000  0.4007081300000000  0.7589942300000000
   0.0992918700000000  0.2410057700000000  0.5000000000000000
   0.9007081299999999  0.2410057700000000  0.5000000000000000
   0.0000000000000000  0.5992918700000001  0.2410057700000000
   0.0000000000000000  0.4007081300000000  0.2410057700000000
   0.9007081299999999  0.7589942300000000  0.5000000000000000
   0.0000000000000000  0.5992918700000001  0.7589942300000000
   0.5992918700000001  0.2589942300000000  0.5000000000000000
   0.7589942300000000  0.0000000000000000  0.4007081300000000
   0.2410057700000000  0.0000000000000000  0.5992918700000001
   0.2410057700000000  0.0000000000000000  0.4007081300000000
   0.7589942300000000  0.0000000000000000  0.5992918700000001
   0.5000000000000000  0.9007081299999999  0.7589942300000000
   0.5992918700000001  0.7410057700000000  0.5000000000000000
   0.4007081300000000  0.7410057700000000  0.5000000000000000
   0.5000000000000000  0.0992918700000000  0.2410057700000000
   0.5000000000000000  0.9007081299999999  0.2410057700000000
   0.4007081300000000  0.2589942300000000  0.5000000000000000
   0.5000000000000000  0.0992918700000000  0.7589942300000000
   0.5992918700000001  0.7589942300000000  0.0000000000000000
   0.7589942300000000  0.5000000000000000  0.9007081299999999
   0.2410057700000000  0.5000000000000000  0.0992918700000000
   0.2410057700000000  0.5000000000000000  0.9007081299999999
   0.7589942300000000  0.5000000000000000  0.0992918700000000
   0.5000000000000000  0.4007081300000000  0.2589942300000000
   0.5992918700000001  0.2410057700000000  0.0000000000000000
   0.4007081300000000  0.2410057700000000  0.0000000000000000
   0.5000000000000000  0.5992918700000001  0.7410057700000000
   0.5000000000000000  0.4007081300000000  0.7410057700000000
   0.4007081300000000  0.7589942300000000  0.0000000000000000
   0.5000000000000000  0.5992918700000001  0.2589942300000000
   0.7500000000000000  0.2500000000000000  0.2500000000000000
   0.2500000000000000  0.7500000000000000  0.7500000000000000
   0.7500000000000000  0.7500000000000000  0.7500000000000000
   0.2500000000000000  0.2500000000000000  0.2500000000000000
   0.2500000000000000  0.2500000000000000  0.7500000000000000
   0.7500000000000000  0.7500000000000000  0.2500000000000000
   0.2500000000000000  0.7500000000000000  0.2500000000000000
   0.7500000000000000  0.2500000000000000  0.7500000000000000
   0.0000000000000000  0.0000000000000000  0.0000000000000000
   0.0000000000000000  0.5000000000000000  0.5000000000000000
   0.5000000000000000  0.0000000000000000  0.5000000000000000
   0.5000000000000000  0.5000000000000000  0.0000000000000000
   0.0000000000000000  0.0000000000000000  0.5000000000000000
   0.0000000000000000  0.5000000000000000  0.0000000000000000
   0.5000000000000000  0.0000000000000000  0.0000000000000000
   0.5000000000000000  0.5000000000000000  0.5000000000000000