cP1Y BPOSCAR-0022597
   1.0
     6.0025823999999988    0.0000000000000000    0.0000000000000000
     0.0000000000000000    6.0025823999999988    0.0000000000000000
     0.0000000000000000    0.0000000000000000    6.0025823999999988
 N O Rb Cd
   3   6   1   1
Direct
   0.5000000000000000  0.5000000000000000  0.0000000000000000
   0.5000000000000000  0.0000000000000000  0.5000000000000000
   0.0000000000000000  0.5000000000000000  0.5000000000000000
   0.5000000000000000  0.0000000000000000  0.7075126700000000
   0.0000000000000000  0.7075126700000000  0.5000000000000000
   0.0000000000000000  0.2924873300000000  0.5000000000000000
   0.5000000000000000  0.0000000000000000  0.2924873300000000
   0.2924873300000000  0.5000000000000000  0.0000000000000000
   0.7075126700000000  0.5000000000000000  0.0000000000000000
   0.0000000000000000  0.0000000000000000  0.0000000000000000
   0.5000000000000000  0.5000000000000000  0.5000000000000000