hR1N BPOSCAR-0022895
   1.0
     4.3089558515497082    0.0000000000000000    0.0000000000000000
    -2.1544779257748541    3.7316652312276553    0.0000000000000000
     0.0000000000000000    0.0000000000000000   10.2486516858249015
 Cu I
   3   3
Direct
   0.0000000000000000  0.0000000000000000  0.2797794000000000
   0.6666666666666666  0.3333333333333333  0.6131127333333333
   0.3333333333333333  0.6666666666666666  0.9464460666666666
   0.0000000000000000  0.0000000000000000  0.0252206000000002
   0.6666666666666666  0.3333333333333333  0.3585539333333334
   0.3333333333333333  0.6666666666666666  0.6918872666666668