oA2N BPOSCAR-0776563
   1.0
     3.0969165300000001    0.0000000000000000    0.0000000000000000
     0.0000000000000000    8.3989907800000001    0.0000000000000000
     0.0000000000000000    0.0000000000000000    4.9027343099999996
 Cr O
   2   6
Direct
   0.0000000000000000  0.0000000000000000  0.8606000400000000
   0.0000000000000000  0.5000000000000000  0.3606000400000000
   0.5000000000000000  0.0000000000000000  0.0421212999999999
   0.0000000000000000  0.8482551199999999  0.6657793299999999
   0.0000000000000000  0.1517448800000001  0.6657793299999999
   0.5000000000000000  0.5000000000000000  0.5421212999999999
   0.0000000000000000  0.3482551199999998  0.1657793300000000
   0.0000000000000000  0.6517448800000001  0.1657793300000000