mP1Y BPOSCAR-0001048
   1.0
     2.9385939922724953    0.0000000000000000    0.0000000000000000
     0.0000000000000000    4.0149254499999998    0.0000000000000000
    -0.9809144665664697    0.0000000000000000    4.6621998437406615
 Ti Ni
   2   2
Direct
   0.6102526299999999  0.7500000000000000  0.7841075399999999
   0.3897473700000002  0.2500000000000000  0.2158924600000000
   0.9374365400000000  0.7500000000000000  0.3284379699999999
   0.0625634599999999  0.2500000000000000  0.6715620300000000