oA1N BPOSCAR-0632475
   1.0
     3.5372412112199783    0.0000000000000000    0.0000000000000000
     0.0000000000000000    3.1790663357329523    0.0000000000000000
     0.0000000000000000    0.0000000000000000    9.9032878682703824
 Nb S
   2   4
Direct
   0.0000000000000000  0.0000000000000000  0.0309652399999998
   0.0000000000000000  0.5000000000000000  0.5309652399999998
   0.0000000000000000  0.5000000000000000  0.8489601849999999
   0.5000000000000000  0.5000000000000000  0.1263269549999999
   0.0000000000000000  0.0000000000000000  0.3489601849999999
   0.5000000000000000  0.0000000000000000  0.6263269549999999