hP2N BPOSCAR-0000219
   1.0
     3.2446419509649993    0.0000000000000000    0.0000000000000000
    -1.6223209754824996    2.8099423557203922    0.0000000000000000
     0.0000000000000000    0.0000000000000000    3.2005169000000002
 P Mo
   1   1
Direct
   0.3333333333333333  0.6666666666666667  0.5000000000000000
   0.0000000000000000  0.0000000000000000  0.0000000000000000