oF1N BPOSCAR-0685145
   1.0
     2.5153398345521460    0.0000000000000000    0.0000000000000000
     0.0000000000000000    6.0450801374370702    0.0000000000000000
     0.0000000000000000    0.0000000000000000    4.3398312607247256
 B N
   4   4
Direct
   0.0000000000000000  0.0000000000000000  0.0004411600000001
   0.0000000000000000  0.5000000000000000  0.5004411600000001
   0.5000000000000000  0.0000000000000000  0.5004411600000001
   0.5000000000000000  0.5000000000000000  0.0004411600000001
   0.0000000000000000  0.0000000000000000  0.6665199100000001
   0.0000000000000000  0.5000000000000000  0.1665199100000000
   0.5000000000000000  0.0000000000000000  0.1665199100000000
   0.5000000000000000  0.5000000000000000  0.6665199100000001