tI1Y BPOSCAR-0012635
   1.0
     6.6011835174224816    0.0000000000000000    0.0000000000000000
     0.0000000000000000    6.6011835174224816    0.0000000000000000
     0.0000000000000000    0.0000000000000000    4.0143642377425790
 Ti Au
   2   8
Direct
   0.0000000000000000  0.0000000000000000  0.0000000000000000
   0.5000000000000000  0.5000000000000000  0.5000000000000000
   0.1049425700000000  0.7069229100000002  0.5000000000000000
   0.8950574300000000  0.2930770899999998  0.5000000000000000
   0.2930770899999998  0.1049425700000000  0.5000000000000000
   0.7069229100000002  0.8950574300000000  0.5000000000000000
   0.6049425700000000  0.2069229100000002  0.0000000000000000
   0.3950574300000000  0.7930770899999998  0.0000000000000000
   0.7930770899999998  0.6049425700000000  0.0000000000000000
   0.2069229100000002  0.3950574300000000  0.0000000000000000