hR1Y BPOSCAR-0020132
   1.0
     3.7622432546763140    0.0000000000000000    0.0000000000000000
    -1.8811216273381570    3.2581982337663353    0.0000000000000000
     0.0000000000000000    0.0000000000000000   13.5138670706735571
 In Hg
   3   3
Direct
   0.6666666666666667  0.3333333333333333  0.8333333333333333
   0.3333333333333333  0.6666666666666666  0.1666666666666666
   0.0000000000000000  0.0000000000000000  0.4999999999999999
   0.0000000000000000  0.0000000000000000  0.0000000000000000
   0.6666666666666666  0.3333333333333333  0.3333333333333333
   0.3333333333333333  0.6666666666666666  0.6666666666666666