oP1N BPOSCAR-0019744
   1.0
     3.0414632300000002    0.0000000000000000    0.0000000000000000
     0.0000000000000000    6.1468502899999997    0.0000000000000000
     0.0000000000000000    0.0000000000000000    3.1394173099999998
 In Sb
   1   1
Direct
   0.0000000000000000  0.0000000000000000  0.0024766500000000
   0.0000000000000000  0.5000000000000000  0.7475233500000000