mC2N BPOSCAR-0684604
   1.0
     4.4543676407916521    0.0000000000000000    0.0000000000000000
     0.0000000000000000    5.9441566239106152    0.0000000000000000
    -2.0649512746343106    0.0000000000000000    4.5288322975994166
 Cu S
   2   4
Direct
   0.0000000000000000  0.2823929850000000  0.0000000000000000
   0.5000000000000000  0.7823929850000000  0.0000000000000000
   0.0646265024999999  0.9926399325000000  0.7196481600000000
   0.9353734975000000  0.9926399325000000  0.2803518400000000
   0.5646265024999999  0.4926399324999999  0.7196481600000000
   0.4353734975000001  0.4926399324999999  0.2803518400000000