mC2Y BPOSCAR-0849598
   1.0
     2.8361602316236882    0.0000000000000000    0.0000000000000000
     0.0000000000000000    4.9041675669748317    0.0000000000000000
    -0.2930545685024968    0.0000000000000000   10.6463836915664292
 Co O
   4   8
Direct
   0.2500000000000000  0.7500000000000000  0.0000000000000000
   0.7500000000000000  0.7500000000000000  0.5000000000000000
   0.7500000000000000  0.2500000000000000  0.0000000000000000
   0.2500000000000000  0.2500000000000000  0.5000000000000000
   0.7573757500000002  0.9163308999999999  0.0906554850000001
   0.2426242499999998  0.9163308999999999  0.4093445149999999
   0.7426242499999998  0.5836691000000001  0.9093445150000000
   0.2573757500000002  0.5836691000000001  0.5906554850000001
   0.2573757500000002  0.4163308999999999  0.0906554850000001
   0.7426242499999998  0.4163308999999999  0.4093445149999999
   0.2426242499999998  0.0836691000000000  0.9093445150000000
   0.7573757500000002  0.0836691000000000  0.5906554850000001