cI1Y BPOSCAR-0570334
   1.0
     5.2123498899999996    0.0000000000000000    0.0000000000000000
     0.0000000000000000    5.2123498899999996    0.0000000000000000
     0.0000000000000000    0.0000000000000000    5.2123498899999996
 Si W
   2   6
Direct
   0.0000000000000000  0.0000000000000000  0.0000000000000000
   0.5000000000000000  0.5000000000000000  0.5000000000000000
   0.0000000000000000  0.5000000000000000  0.5000000000000000
   0.0000000000000000  0.5000000000000000  0.0000000000000000
   0.0000000000000000  0.0000000000000000  0.5000000000000000
   0.5000000000000000  0.0000000000000000  0.0000000000000000
   0.5000000000000000  0.0000000000000000  0.5000000000000000
   0.5000000000000000  0.5000000000000000  0.0000000000000000