oC2Y BPOSCAR-0027639
   1.0
     8.4287740423760944    0.0000000000000000    0.0000000000000000
     0.0000000000000000    5.4132319855084452    0.0000000000000000
     0.0000000000000000    0.0000000000000000    8.8163600399999993
 Br I
   4   4
Direct
   0.0000000000000000  0.7990394399999999  0.2500000000000000
   0.0000000000000000  0.2009605600000000  0.7500000000000000
   0.5000000000000000  0.2990394400000000  0.2500000000000000
   0.5000000000000000  0.7009605600000001  0.7500000000000000
   0.0000000000000000  0.5000000000000000  0.5000000000000000
   0.0000000000000000  0.5000000000000000  0.0000000000000000
   0.5000000000000000  0.0000000000000000  0.5000000000000000
   0.5000000000000000  0.0000000000000000  0.0000000000000000