cP1N BPOSCAR-0008675
   1.0
     5.3233224500000000    0.0000000000000000    0.0000000000000000
     0.0000000000000000    5.3233224500000000    0.0000000000000000
     0.0000000000000000    0.0000000000000000    5.3233224500000000
 Pd Hg
   4   4
Direct
   0.1525474800000000  0.3474525200000000  0.6525474800000000
   0.3474525200000000  0.6525474800000000  0.1525474800000000
   0.6525474800000000  0.1525474800000000  0.3474525200000000
   0.8474525200000000  0.8474525200000000  0.8474525200000000
   0.8435654299999999  0.6564345700000001  0.3435654300000000
   0.6564345700000001  0.3435654300000000  0.8435654299999999
   0.3435654300000000  0.8435654299999999  0.6564345700000001
   0.1564345700000000  0.1564345700000000  0.1564345700000000