aP3Y BPOSCAR-0642822
   1.0
     2.0626889899999998    2.6083333300000002   -2.0959087400000000
     1.9072983399999999    2.9395872999999999    1.8656656300000001
     6.5783827900000000   -3.2025691800000007    1.4025826200000000
 Ca C
   2   4
Direct
   0.2293290750000000  0.9643429050000000  0.7541443700000001
   0.7706709250000001  0.0356570950000000  0.2458556299999999
   0.1294345049999998  0.4304467199999998  0.0623625850000001
   0.8705654950000002  0.5695532800000003  0.9376374149999998
   0.4456382749999998  0.6359233099999999  0.4306348850000002
   0.5543617250000001  0.3640766900000001  0.5693651149999999