Cu1 O1
1.0
        4.6529998779         0.0000000000         0.0000000000
        0.0000000000         3.4100000858         0.0000000000
       -0.8413048067         0.0000000000         5.0382405853
   Cu    O
    4    4
Direct
     0.250000000         0.250000000         0.000000000
     0.750000000         0.750000000         0.000000000
     0.750000000         0.250000000         0.500000000
     0.250000000         0.750000000         0.500000000
     0.000000000         0.583999991         0.250000000
     0.000000000         0.416000009         0.750000000
     0.500000000         0.083999991         0.250000000
     0.500000000         0.916000009         0.750000000
