mC1Y BPOSCAR-0023219
   1.0
     7.6917654295426541    0.0000000000000000    0.0000000000000000
     0.0000000000000000    3.4925583779989822    0.0000000000000000
    -3.3889674554441087    0.0000000000000000    6.1941827927435229
 Cu Br
   2   4
Direct
   0.0000000000000000  0.0000000000000000  0.0000000000000000
   0.5000000000000000  0.5000000000000000  0.0000000000000000
   0.9906259350000000  0.5000000000000000  0.7580006699999999
   0.0093740650000000  0.5000000000000000  0.2419993300000000
   0.4906259350000000  0.0000000000000000  0.7580006699999999
   0.5093740650000000  0.0000000000000000  0.2419993300000000