mC1N BPOSCAR-0632403
   1.0
     5.9523730992692938    0.0000000000000000    0.0000000000000000
     0.0000000000000000    5.9315452334996053    0.0000000000000000
    -0.1322263448500317    0.0000000000000000    4.9936063923993803
 Cd Cl
   2   4
Direct
   0.0000000000000000  0.8435554000000002  0.0000000000000000
   0.5000000000000000  0.3435554000000002  0.0000000000000000
   0.2512113300000000  0.0819644100000003  0.7285905800000003
   0.7487886699999999  0.0819644100000003  0.2714094199999996
   0.7512113300000001  0.5819644100000003  0.7285905800000003
   0.2487886700000000  0.5819644100000003  0.2714094199999996