mP1N BPOSCAR-0037036
   1.0
     4.3191896229634406    0.0000000000000000    0.0000000000000000
     0.0000000000000000    3.7277627610011685    0.0000000000000000
    -0.2651497979729798    0.0000000000000000    5.7104711285392602
 Bi O
   2   3
Direct
   0.0435174299999992  0.0000000000000000  0.0357734900000000
   0.4811621599999999  0.5000000000000000  0.4800676200000000
   0.5036851999999993  0.0000000000000000  0.2121958200000000
   0.2902936299999997  0.0000000000000000  0.6861861600000001
   0.0393416099999997  0.5000000000000000  0.2647768900000000