hP1Y BPOSCAR-0000882
   1.0
     5.1132522679799095    0.0000000000000000    0.0000000000000000
    -2.5566261339899548    4.4282063600289971    0.0000000000000000
     0.0000000000000000    0.0000000000000000    4.7497088850000004
 O Ti
   1   6
Direct
   0.0000000000000000  0.0000000000000000  0.0000000000000000
   0.6684051500000000  0.6684051500000000  0.7391580200000001
   0.6684051500000000  0.0000000000000000  0.2608419799999999
   0.0000000000000000  0.6684051500000000  0.2608419799999999
   0.3315948500000000  0.3315948500000000  0.2608419799999999
   0.3315948500000000  0.0000000000000000  0.7391580200000001
   0.0000000000000000  0.3315948500000000  0.7391580200000001